src/LP.mps
NAME Zero_atom_detection
* Max problem is converted into Min one
ROWS
 N  OBJ
 E  R9      
 E  R10     
 E  R11     
 E  R12     
 E  R13     
 E  R14     
 E  R15     
 E  R16     
 E  R17     
COLUMNS
    C8        R9        1
    C8        R17       1
    C9        R10       1
    C9        R17       1
    C10       R11       1
    C10       R17       1
    C11       R10       1
    C11       R11       1
    C11       R12       1
    C11       R17       1
    C12       R13       1
    C12       R17       1
    C13       OBJ       -1
    C13       R10       1
    C13       R13       1
    C13       R14       1
    C13       R17       1
    C14       R11       1
    C14       R13       1
    C14       R15       1
    C14       R17       1
    C15       R10       1
    C15       R11       1
    C15       R12       1
    C15       R13       1
    C15       R14       1
    C15       R15       1
    C15       R16       1
    C15       R17       1
RHS
    RHS1      R9        0.94
    RHS1      R10       1.1428571428571429e-02
    RHS1      R11       3.7142857142857144e-02
    RHS1      R12       8.5714285714285719e-03
    RHS1      R13       2.5714285714285714e-02
    RHS1      R14       2.8571428571428571e-03
    RHS1      R15       5.7142857142857143e-03
    RHS1      R16       2.8571428571428571e-03
    RHS1      R17       1
BOUNDS
 UP BND1      C8        1
 UP BND1      C9        1
 UP BND1      C10       1
 UP BND1      C11       1
 UP BND1      C12       1
 UP BND1      C13       1
 UP BND1      C14       1
 UP BND1      C15       1
ENDATA
