src/LP.sol
# Solution for model Zero_atom_detection
# Objective value = 0
C8 0.94
C9 2.8571428571428567e-03
C10 2.5714285714285717e-02
C11 5.7142857142857151e-03
C12 0.02
C13 0
C14 2.8571428571428571e-03
C15 2.8571428571428571e-03
